c Output_time 26.03.2020 18:15:20_+0100 1585242920933562789
c ** Program information **
c program_name                          "QBRG_debug"
c version                               "0.3.20"
c date                                  "25.3.2020"
c gid_id                                "673970833836058123f633335630c185360d632e"
c author                                "Oliver Kullmann"
c url                                   "https://github.com/OKullmann/oklibrary/blob/master/Satisfiability/Transformers/Generators/Random/QBRG.cpp"
c ** Machine information **
c machine_name                          "chyna-Lenovo-G50-70"
c bogomips                              3791.08
c ** Compilation information **
c compiler_version                      "g++ 7.5.0"
c compilation_date                      "Mar_26_2020 11:16:30"
c compilation_options                   "--std=c++17 -pedantic -fmax-errors=5 -Wall -Wextra -g -D_GLIBCXX_DEBUG"
c NDEBUG                                0
c OPTIMIZE                              0
c ** Parameters **
c command-line                          "./QBRG_debug" "a40 e40 a40 40" "444*1,1|2-2,1|3-3,1|4-4,1" "" "1,t" ""
c output                                "QuBlRaGe_160_444_1585242920933082466.qdimacs"
c options                               "filtered,renamed"
c num_quantifier_blocks                 4
c  quantifier_blocks                    1:a1-40 2:e41-80 3:a81-120 4:e121-160
c num_clause-blocks                     1
c  clause-blocks                        444 * {1-40,1,1/2} | {41-80,1,1/2} | {81-120,1,1/2} | {121-160,1,1/2}
c num_e-seeds                           37+2=39
c  e-seeds                              1 0 1 0 5 160 2 40 0 40 1 40 0 40 1 444 4 1 1 1 1 2 2 2 1 1 2 3 3 1 1 2 4 4 1 1 2 1 1585242920933081650
p cnf 160 444
a 1 2 3 4 5 6 7 8 9 10 11 12 13 14 15 16 17 18 19 20 21 22 23 24 25 26 27 28 29 30 31 32 33 34 35 36 37 38 39 40 0
e 41 42 43 44 45 46 47 48 49 50 51 52 53 54 55 56 57 58 59 60 61 62 63 64 65 66 67 68 69 70 71 72 73 74 75 76 77 78 79 80 0
a 81 82 83 84 85 86 87 88 89 90 91 92 93 94 95 96 97 98 99 100 101 102 103 104 105 106 107 108 109 110 111 112 113 114 115 116 117 118 119 120 0
e 121 122 123 124 125 126 127 128 129 130 131 132 133 134 135 136 137 138 139 140 141 142 143 144 145 146 147 148 149 150 151 152 153 154 155 156 157 158 159 160 0
11 -63 -85 -121 0
-11 56 -87 -121 0
12 -65 -91 -121 0
-10 -50 -96 -121 0
-31 56 98 -121 0
-13 55 111 -121 0
-2 57 116 -121 0
17 -56 118 -121 0
37 -58 120 -121 0
-26 -41 83 121 0
-40 -61 90 121 0
-22 -61 97 121 0
6 55 -111 121 0
11 44 -113 121 0
-34 63 113 121 0
-28 54 89 -122 0
-1 -53 92 -122 0
2 69 100 -122 0
22 -70 102 -122 0
-8 51 -112 -122 0
-18 54 -94 122 0
-1 -75 81 -123 0
30 57 83 -123 0
-37 53 96 -123 0
18 -49 -106 -123 0
-19 -45 -111 -123 0
-40 -59 113 -123 0
30 -54 116 -123 0
12 57 86 123 0
-31 61 86 123 0
23 -64 86 123 0
17 -76 86 123 0
-35 -78 -87 123 0
-20 62 102 123 0
3 59 -103 123 0
-21 -52 118 123 0
28 -45 84 -124 0
28 60 84 -124 0
22 -55 87 -124 0
-25 -51 99 -124 0
-36 67 99 -124 0
30 43 104 -124 0
7 -42 -106 -124 0
-13 -50 -120 -124 0
26 -46 -84 124 0
11 -66 84 124 0
30 54 -97 124 0
20 -76 -100 124 0
8 -66 111 124 0
32 47 -114 124 0
-23 56 103 -125 0
-25 -61 -115 -125 0
11 52 -116 -125 0
5 -44 116 -125 0
-16 72 -87 125 0
-8 -50 87 125 0
7 -63 89 125 0
21 -63 -103 125 0
-10 -48 -105 125 0
33 -66 105 125 0
31 62 116 125 0
-14 45 85 -126 0
-30 -55 -88 -126 0
34 -76 96 -126 0
23 -72 -109 -126 0
-36 -76 -83 126 0
-1 -56 -96 126 0
-24 62 -96 126 0
19 -45 -97 126 0
-39 42 -114 126 0
-7 57 93 -127 0
-13 -58 -94 -127 0
-6 71 108 -127 0
-1 43 -109 -127 0
3 70 -109 -127 0
32 69 -86 127 0
26 -55 91 127 0
15 51 -95 127 0
38 50 -97 127 0
13 43 -109 127 0
-12 72 111 127 0
-14 55 113 127 0
31 59 82 -128 0
-36 68 -91 -128 0
-40 -46 91 -128 0
-14 53 -98 -128 0
6 48 100 -128 0
-23 47 105 -128 0
-35 -49 115 -128 0
23 -73 89 128 0
35 -70 -91 128 0
-19 -44 -114 128 0
4 42 118 128 0
-27 -52 86 -129 0
18 53 -87 -129 0
-9 59 90 -129 0
12 -73 -98 -129 0
-38 -60 104 -129 0
25 46 -115 -129 0
-20 54 116 -129 0
10 52 -93 129 0
15 -43 96 129 0
-22 -69 -97 129 0
25 -49 -98 129 0
-36 43 -107 129 0
10 72 -109 129 0
24 80 -109 129 0
18 -73 -111 129 0
36 47 -112 129 0
2 -73 -118 129 0
38 58 118 129 0
11 -45 -81 -130 0
4 45 -81 -130 0
14 54 85 -130 0
-4 52 -102 -130 0
-8 49 -111 -130 0
-33 -56 87 130 0
6 54 -92 -131 0
-17 -44 -96 -131 0
32 63 -88 131 0
-40 -48 -91 131 0
-24 68 99 131 0
17 -45 107 131 0
-36 -57 109 131 0
3 68 -81 -132 0
-11 53 83 -132 0
27 -61 96 -132 0
14 -73 -100 -132 0
-21 -64 -109 -132 0
-3 67 -113 -132 0
-7 -57 115 -132 0
15 -68 115 -132 0
2 -59 -117 -132 0
3 -59 83 132 0
-34 -47 -93 132 0
33 50 100 132 0
13 73 102 132 0
14 -79 116 132 0
-15 41 -120 132 0
-10 -71 82 -133 0
23 -56 84 -133 0
-16 -72 -88 -133 0
-14 70 -90 -133 0
-10 53 91 -133 0
-10 -62 -92 -133 0
-17 -76 96 -133 0
15 70 -104 -133 0
-17 -63 120 -133 0
-40 -60 86 133 0
40 -55 90 133 0
-25 43 -98 133 0
23 -56 -116 133 0
1 78 -85 -134 0
-23 52 87 -134 0
4 69 88 -134 0
-33 52 -105 -134 0
19 43 109 -134 0
-31 73 116 -134 0
36 48 -87 134 0
-15 53 -92 134 0
-30 -49 97 134 0
-11 -45 -99 134 0
37 -60 103 134 0
-21 -55 105 134 0
-36 -62 116 134 0
15 64 120 134 0
-5 -44 87 -135 0
-9 75 -99 -135 0
16 -70 113 -135 0
-35 -73 -118 -135 0
27 -79 -118 -135 0
30 -68 81 135 0
21 -69 88 135 0
-33 -44 105 135 0
3 71 109 135 0
-26 -42 -116 135 0
-34 68 87 -136 0
37 -66 -90 -136 0
21 -69 96 -136 0
5 41 101 -136 0
2 70 104 -136 0
-22 -55 -108 -136 0
-12 -76 -103 136 0
32 -65 110 136 0
17 -56 -114 136 0
-26 -78 95 -137 0
-13 -79 99 -137 0
40 44 103 -137 0
17 -53 110 -137 0
35 -55 -118 -137 0
4 71 83 -138 0
19 68 86 -138 0
-26 76 90 -138 0
25 -50 -94 -138 0
16 -52 95 -138 0
5 49 -107 -138 0
16 48 110 -138 0
19 -68 -114 -138 0
-16 -58 117 -138 0
-29 47 83 138 0
20 -65 88 138 0
-26 -63 -93 138 0
29 52 -100 138 0
-23 -72 100 138 0
37 -78 104 138 0
24 55 107 138 0
-39 66 107 138 0
16 -63 -115 138 0
-12 -77 -115 138 0
27 43 -90 -139 0
-11 70 95 -139 0
3 57 -99 -139 0
-4 71 103 -139 0
14 72 -105 -139 0
-19 -61 -110 -139 0
-3 -46 -113 -139 0
3 -45 81 139 0
9 -62 -114 139 0
30 45 115 139 0
22 -47 -82 -140 0
-36 60 85 -140 0
-19 45 -86 -140 0
-40 52 92 -140 0
25 44 -94 -140 0
4 77 116 -140 0
21 42 -92 140 0
-20 64 93 140 0
-36 -73 104 140 0
36 -78 -111 140 0
13 -78 115 140 0
-12 67 120 140 0
-5 -80 -82 -141 0
9 48 -86 -141 0
21 -68 -86 -141 0
38 75 95 141 0
-18 58 106 141 0
-32 -47 -118 141 0
33 -60 102 -142 0
-24 73 114 -142 0
17 -69 -118 -142 0
-18 -66 -85 142 0
34 -61 -92 142 0
29 45 -102 142 0
-34 52 111 142 0
13 42 -88 -143 0
-26 -80 107 -143 0
28 -79 -117 -143 0
28 -80 120 -143 0
-24 67 100 143 0
28 58 -106 143 0
24 69 -82 -144 0
-36 65 -84 -144 0
-2 43 -88 -144 0
-34 43 93 -144 0
19 -44 -104 -144 0
36 -51 -86 144 0
-20 -72 -89 144 0
37 45 94 144 0
33 65 -107 144 0
9 47 -110 144 0
21 70 110 144 0
10 -42 -118 144 0
-14 -74 119 144 0
-1 56 -98 -145 0
29 73 -109 -145 0
33 65 -111 -145 0
-28 80 115 -145 0
24 46 88 145 0
-26 -80 91 145 0
16 -55 -94 145 0
-37 42 96 145 0
28 80 108 145 0
-13 78 114 145 0
9 57 120 145 0
32 -55 91 -146 0
-34 79 92 -146 0
30 73 93 -146 0
-20 42 -96 -146 0
-17 -65 115 -146 0
-11 56 -119 -146 0
24 63 -95 146 0
-26 -46 111 146 0
-35 69 112 146 0
-15 -69 115 146 0
9 55 -120 146 0
34 -67 -97 -147 0
-13 -53 -100 -147 0
-40 -41 -101 -147 0
32 69 -117 -147 0
31 -77 99 147 0
18 -64 -107 147 0
-13 76 -107 147 0
-28 -56 90 -148 0
-16 -47 99 -148 0
25 63 -103 -148 0
3 -60 103 -148 0
14 78 108 -148 0
33 -46 112 -148 0
-7 -54 -84 148 0
-9 47 -87 148 0
-39 -79 -96 148 0
-21 56 -105 148 0
21 -50 108 148 0
7 64 109 148 0
36 -54 -94 -149 0
6 -63 94 -149 0
-40 -61 -102 -149 0
12 -75 -103 -149 0
9 -56 115 -149 0
-3 55 -117 -149 0
3 -45 -120 -149 0
-29 -69 87 149 0
36 -58 -100 149 0
-12 76 -109 149 0
-14 62 109 149 0
29 -41 114 149 0
35 59 -116 149 0
40 -74 118 149 0
38 74 -85 -150 0
8 -68 92 -150 0
-14 -70 -98 -150 0
31 -73 -103 -150 0
21 68 89 150 0
6 46 94 150 0
4 78 -101 150 0
8 55 -102 150 0
23 -80 105 150 0
-26 59 112 150 0
-6 -47 -84 -151 0
-11 -59 88 -151 0
-16 41 -96 -151 0
-24 -71 -97 -151 0
-38 -66 97 -151 0
-2 -66 -99 -151 0
-36 61 -104 -151 0
-12 53 105 -151 0
37 64 -114 -151 0
23 46 82 151 0
-20 -68 98 151 0
-24 -41 113 151 0
25 56 -118 151 0
-32 -70 -118 151 0
-34 -45 -88 -152 0
-38 -55 -95 -152 0
32 -71 98 -152 0
-18 -67 103 -152 0
32 79 -106 -152 0
34 62 110 -152 0
25 63 93 152 0
-30 72 94 152 0
17 75 101 152 0
4 -46 103 152 0
-32 79 -108 152 0
7 78 111 152 0
-27 -79 84 -153 0
-37 -78 87 -153 0
-13 56 -91 -153 0
19 79 -94 -153 0
-29 -54 -96 -153 0
-19 -55 100 -153 0
22 -65 -106 -153 0
-22 -68 109 -153 0
-15 -54 -111 -153 0
2 -65 -115 -153 0
20 73 -117 -153 0
9 -80 -117 -153 0
29 -64 -82 153 0
38 -76 -84 153 0
33 -55 -86 153 0
16 53 -95 153 0
-3 68 -98 153 0
-32 51 106 153 0
-39 -45 -113 153 0
40 -67 119 153 0
40 74 -95 -154 0
19 -49 -82 154 0
1 -60 -82 154 0
-22 68 95 154 0
30 78 -106 154 0
40 -67 -111 154 0
21 -74 -118 154 0
36 -48 81 -155 0
-8 51 81 -155 0
34 -75 -82 -155 0
26 -74 96 -155 0
29 69 97 -155 0
26 -43 -116 -155 0
-23 -66 -99 155 0
-30 42 109 155 0
21 62 -86 -156 0
-14 58 92 -156 0
-19 -47 -89 156 0
-33 -47 -93 156 0
-18 -60 -101 156 0
23 76 -102 156 0
13 54 -104 156 0
-26 -59 -88 -157 0
26 48 -92 -157 0
-3 -77 -104 -157 0
-22 -41 -110 -157 0
3 45 -110 -157 0
4 62 111 -157 0
-21 -80 120 -157 0
-22 -48 -93 157 0
-27 -42 104 157 0
-14 48 87 -158 0
-40 -58 91 -158 0
-2 71 98 -158 0
-29 -48 106 -158 0
5 62 -107 -158 0
-28 -42 -108 -158 0
17 51 111 -158 0
-28 -69 117 -158 0
9 80 -119 -158 0
29 -68 -81 158 0
-18 -44 82 158 0
5 75 -91 158 0
-23 71 94 158 0
19 49 -101 158 0
3 55 -107 158 0
40 66 -111 158 0
3 69 -116 158 0
9 -50 86 -159 0
23 62 103 -159 0
-36 77 103 -159 0
-5 -48 107 -159 0
-2 79 -116 -159 0
-18 68 -104 159 0
-13 76 108 159 0
37 -49 -120 159 0
20 64 89 -160 0
-3 -66 99 -160 0
2 -64 100 -160 0
25 -55 104 -160 0
8 52 -113 -160 0
36 -49 113 -160 0
-25 -56 118 -160 0
27 -50 -82 160 0
32 55 89 160 0
15 59 104 160 0
32 56 111 160 0
-17 -65 113 160 0
6 71 -119 160 0
15 52 119 160 0
